Cost: 1350
0-56-53-44-43-35-34-60-33-32-26-18-16-19-20-21-22-25-27-6-7-9-13-17-28-29-31-70-1-0
0-3-4-8-59-57-52-40-68-46-62-49-51-50-54-55-0
Cost: 1350
0-53-43-42-35-34-60-33-32-26-18-16-19-20-21-22-17-64-25-27-6-7-9-13-28-29-31-70-2-0
0-3-4-8-59-57-56-52-46-40-68-49-51-50-54-55-0
Cost: 1374
0-4-5-25-27-7-9-13-66-16-18-19-20-21-22-33-35-34-60-32-26-17-28-29-30-65-1-0
0-3-8-59-57-56-52-53-44-42-40-68-46-49-51-50-54-55-0
Cost: 1357
0-3-4-8-59-57-52-40-68-46-62-49-51-50-54-55-56-0
0-53-44-42-35-34-60-33-32-26-22-18-19-20-21-17-25-27-6-7-9-66-14-16-28-29-31-1-0
Cost: 1350
0-53-43-42-35-34-60-33-32-26-18-16-19-20-21-22-25-27-6-7-9-13-17-28-29-30-70-1-0
0-3-4-8-59-57-56-52-40-68-46-62-49-51-50-54-55-0
Cost: 1350
0-3-4-8-59-52-40-68-46-62-49-51-50-54-55-56-0
0-57-53-43-42-35-34-60-33-32-26-22-18-16-19-20-21-25-27-6-7-9-13-17-28-29-30-70-1-0
Cost: 1354
0-53-44-42-35-34-60-33-32-26-17-64-25-27-6-7-9-66-14-16-18-19-20-21-22-28-29-30-1-0
0-3-4-8-59-57-56-52-40-68-46-49-51-50-54-55-0
Cost: 1354
0-3-4-8-59-57-52-40-68-46-62-49-51-50-54-55-56-0
0-53-43-42-35-34-60-33-32-26-17-25-27-6-7-9-66-14-16-18-19-20-21-22-28-29-30-1-0
Cost: 1350
0-53-43-42-35-34-60-33-32-26-18-16-19-20-21-22-17-25-27-6-7-9-13-64-28-29-31-70-1-0
0-3-4-8-59-57-56-52-40-68-46-49-51-50-54-55-0
Cost: 1350
0-53-44-42-35-34-60-33-32-26-22-18-16-19-20-21-25-27-6-7-9-13-17-28-29-30-70-1-0
0-3-4-8-59-57-52-46-40-68-62-49-51-50-54-55-56-0
Cost: 1350
0-3-4-8-59-57-56-52-40-68-46-62-49-51-50-54-55-0
0-53-44-42-35-34-60-33-32-26-18-16-19-20-21-22-25-27-6-7-9-13-17-28-29-30-70-1-0
Cost: 1374
0-3-8-59-57-52-53-44-42-63-40-68-46-49-51-50-54-55-56-0
0-4-5-25-27-7-9-66-14-16-18-19-20-21-33-35-34-60-32-26-22-17-28-29-31-2-0
Cost: 1350
0-3-4-8-59-57-52-46-40-68-62-49-51-50-54-55-56-0
0-53-44-42-35-34-60-33-32-26-22-18-16-19-20-21-17-25-27-6-7-9-13-28-29-31-70-1-0
Cost: 1350
0-52-53-44-43-35-34-60-33-32-26-22-18-16-19-20-21-25-27-6-7-9-13-17-28-29-31-70-1-0
0-3-4-8-59-57-56-40-68-46-62-49-51-50-54-55-0
Cost: 1372
0-3-5-70-45-53-43-42-35-34-33-32-26-22-18-16-19-20-21-25-27-7-9-13-17-28-29-31-65-2-0
0-4-8-59-57-58-51-50-52-40-68-46-54-55-56-0
Cost: 1350
0-3-4-8-59-57-56-52-40-68-46-62-49-51-50-54-55-0
0-53-44-42-35-34-60-33-32-26-18-16-19-20-21-22-25-27-6-7-9-13-17-28-29-30-70-1-0
Cost: 1350
0-3-4-8-59-57-56-52-40-68-46-62-49-51-50-54-55-0
0-53-44-42-35-34-60-33-32-26-18-16-19-20-21-22-25-27-6-7-9-13-17-28-29-30-70-1-0
Cost: 1372
0-3-5-70-45-53-43-42-35-34-33-32-26-22-18-16-19-20-21-25-27-7-9-13-17-28-29-31-65-2-0
0-4-8-59-57-58-51-50-52-40-68-46-54-55-56-0
Cost: 1350
0-53-43-42-35-34-60-33-32-26-18-16-19-20-21-22-25-27-6-7-9-13-17-28-29-31-70-1-0
0-3-4-8-59-57-56-52-40-68-46-62-49-51-50-54-55-0
Cost: 1350
0-53-44-42-35-34-60-33-32-26-22-18-16-19-20-21-17-25-27-6-7-9-13-28-29-31-70-1-0
0-3-4-8-59-57-56-52-40-68-46-62-49-51-50-54-55-0
Cost: 1350
0-3-4-8-59-57-56-52-40-68-46-62-49-51-50-54-55-0
0-53-44-42-35-34-60-33-32-26-22-18-16-19-20-21-17-25-27-6-7-9-13-28-29-31-70-2-0
Cost: 1350
0-3-4-8-59-57-56-52-40-68-46-62-49-51-50-54-55-0
0-53-44-42-35-34-60-33-32-26-22-18-16-19-20-21-17-25-27-6-7-9-13-28-29-31-70-2-0
Cost: 1350
0-3-4-8-59-57-56-52-46-40-68-62-49-51-50-54-55-0
0-53-44-43-35-34-60-33-32-26-18-16-19-20-21-22-17-25-27-6-7-9-13-28-29-30-70-2-0
Cost: 1350
0-3-4-8-59-57-56-52-46-40-68-62-49-51-50-54-55-0
0-53-44-43-35-34-60-33-32-26-18-16-19-20-21-22-17-25-27-6-7-9-13-28-29-30-70-2-0
Cost: 1354
0-53-43-42-35-34-60-33-32-26-64-25-27-6-7-9-13-66-16-18-19-20-21-22-17-28-29-30-2-0
0-3-4-8-59-57-56-52-46-40-68-49-51-50-54-55-0
Cost: 1350
0-3-4-8-59-57-56-52-46-40-68-62-49-51-50-54-55-0
0-53-44-43-35-34-60-33-32-26-18-16-19-20-21-22-17-25-27-6-7-9-13-28-29-30-70-2-0
Cost: 1350
0-53-44-42-35-34-60-33-32-26-22-18-16-19-20-21-17-25-27-6-7-9-13-28-29-31-70-1-0
0-3-4-8-59-57-56-52-40-68-46-62-49-51-50-54-55-0
Cost: 1350
0-3-4-8-59-57-52-40-68-46-62-49-51-50-54-55-56-0
0-53-44-42-35-34-60-33-32-26-22-18-16-19-20-21-17-25-27-6-7-9-13-28-29-31-70-2-0
Cost: 1350
0-3-4-8-59-57-52-40-68-46-62-49-51-50-54-55-56-0
0-53-44-42-35-34-60-33-32-26-22-18-16-19-20-21-17-25-27-6-7-9-13-28-29-31-70-2-0
Cost: 1350
0-3-4-8-59-57-56-40-68-46-62-49-51-50-54-55-0
0-52-53-43-42-35-34-60-33-32-26-22-18-16-19-20-21-25-27-6-7-9-13-17-28-29-30-70-1-0
Cost: 1350
0-3-4-8-59-57-56-52-40-68-46-62-49-51-50-54-55-0
0-53-43-42-35-34-60-33-32-26-22-18-16-19-20-21-25-27-6-7-9-13-17-28-29-31-70-1-0
Cost: 1350
0-3-4-8-59-57-56-52-46-40-68-62-49-51-50-54-55-0
0-53-43-42-35-34-60-33-32-26-22-18-16-19-20-21-25-27-6-7-9-13-17-28-29-31-70-1-0
Cost: 1350
0-53-43-42-35-34-60-33-32-26-18-16-19-20-21-22-25-27-6-7-9-13-17-28-29-31-70-1-0
0-3-4-8-59-57-56-52-40-68-46-62-49-51-50-54-55-0
Cost: 1350
0-53-43-42-35-34-60-33-32-26-22-18-16-19-20-21-25-27-6-7-9-13-17-64-28-29-31-70-1-0
0-3-4-8-59-57-56-52-40-68-46-49-51-50-54-55-0
